
<<< setup


<<< generate

Version identifier: 12.10.0.0 | 2019-11-26 | 843d4de2ae
CPXPARAM_TimeLimit                               1200
Tried aggregator 2 times.
MIP Presolve eliminated 5172424 rows and 2940920 columns.
MIP Presolve modified 418930 coefficients.
Aggregator did 1253 substitutions.
Reduced MIP has 76973 rows, 76877 columns, and 478428 nonzeros.
Reduced MIP has 76827 binaries, 0 generals, 0 SOSs, and 0 indicators.
Presolve time = 6.38 sec. (3794.29 ticks)
Found incumbent of value 0.000000 after 9.86 sec. (4864.10 ticks)
Probing fixed 3069 vars, tightened 0 bounds.
Probing time = 10.76 sec. (2184.31 ticks)
Tried aggregator 2 times.
Detecting symmetries...
MIP Presolve eliminated 2696 rows and 3079 columns.
Aggregator did 6 substitutions.
Reduced MIP has 74271 rows, 73792 columns, and 460127 nonzeros.
Reduced MIP has 73742 binaries, 0 generals, 0 SOSs, and 0 indicators.
Presolve time = 0.84 sec. (398.10 ticks)
Probing fixed 386 vars, tightened 0 bounds.
Probing time = 4.23 sec. (919.39 ticks)
Cover probing fixed 1 vars, tightened 0 bounds.
Clique table members: 265757.
MIP emphasis: balance optimality and feasibility.
MIP search method: dynamic search.
Parallel mode: deterministic, using up to 4 threads.
Root relaxation solution time = 4.67 sec. (2260.53 ticks)

        Nodes                                         Cuts/
   Node  Left     Objective  IInf  Best Integer    Best Bound    ItCnt     Gap

*     0+    0                            0.0000   116174.0000              --- 
      0     0   116174.0000  1061        0.0000   116174.0000    11231     --- 
*     0+    0                         1845.0000   116174.0000              --- 
      0     0   116174.0000  1061     1845.0000      Cuts: 89    28509     --- 
      0     0   116174.0000  1061     1845.0000     Cuts: 227    42529     --- 
Heuristic still looking.
Heuristic still looking.
Detecting symmetries...
      0     2   116174.0000   812     1845.0000   116174.0000    70148     --- 
Elapsed time = 528.94 sec. (325829.93 ticks, tree = 0.02 MB, solutions = 2)
      1     3   116174.0000   803     1845.0000   116174.0000    71579     --- 
      2     4   116174.0000   894     1845.0000   116174.0000    86132     --- 
      3     5   116174.0000  1096     1845.0000   116174.0000    99233     --- 
      4     4   116174.0000   886     1845.0000   116174.0000    94074     --- 
      6     3   116174.0000   934     1845.0000   116174.0000    99755     --- 
      7     7   116174.0000  1011     1845.0000   116174.0000   154629     --- 
      8    10   116174.0000  1149     1845.0000   116174.0000   194081     --- 
      9     9   116174.0000  1315     1845.0000   116174.0000   175734     --- 
     10    11   116174.0000  1299     1845.0000   116174.0000   200219     --- 
     13     5   116174.0000  1083     1845.0000   116174.0000   106681     --- 
Elapsed time = 657.06 sec. (377387.42 ticks, tree = 0.02 MB, solutions = 2)
     17     8   116174.0000  1083     1845.0000   116174.0000   157480     --- 
     18    12   116174.0000  1099     1845.0000   116174.0000   180370     --- 
     21    14   116174.0000  1107     1845.0000   116174.0000   183617     --- 
     23    18   116174.0000  1181     1845.0000   116174.0000   273592     --- 
     25    13   116174.0000  1182     1845.0000   116174.0000   249607     --- 
     28    26   116174.0000  1192     1845.0000   116174.0000   316609     --- 
     29    27   116174.0000  1267     1845.0000   116174.0000   323899     --- 
     30    20   116174.0000  1108     1845.0000   116174.0000   278728     --- 
     31    21   116174.0000  1160     1845.0000   116174.0000   280685     --- 
     33    11   116174.0000  1238     1845.0000   116174.0000   259616     --- 
Elapsed time = 740.02 sec. (407130.46 ticks, tree = 0.12 MB, solutions = 2)
     34    28   116174.0000  1188     1845.0000   116174.0000   323975     --- 
     35    30   116174.0000  1473     1845.0000   116174.0000   327647     --- 
     37    34   116174.0000  1024     1845.0000   116174.0000   390149     --- 
     39    32   116174.0000  1032     1845.0000   116174.0000   331003     --- 
     40    14   116174.0000  1219     1845.0000   116174.0000   275789     --- 
     41    34   116174.0000  1297     1845.0000   116174.0000   410982     --- 
     42    30   116174.0000  1488     1845.0000   116174.0000   402245     --- 
     43    39    infeasible           1845.0000   116174.0000   458046     --- 
     45    42   116174.0000   980     1845.0000   116174.0000   489192     --- 
     47    39    infeasible           1845.0000   116174.0000   516444     --- 
Elapsed time = 881.03 sec. (452030.72 ticks, tree = 1.71 MB, solutions = 2)
     48    43   116174.0000  1075     1845.0000   116174.0000   521517     --- 
     51    44   116174.0000  1274     1845.0000   116174.0000   611857     --- 
     52    45   116174.0000  1014     1845.0000   116174.0000   629108     --- 
     55    46   116174.0000  1115     1845.0000   116174.0000   631918     --- 
     58    48   116174.0000  1546     1845.0000   116174.0000   633129     --- 
     60    50   116174.0000  1349     1845.0000   116174.0000   636916     --- 
     62    52   116174.0000  1089     1845.0000   116174.0000   641592     --- 
     64    54   116174.0000  1131     1845.0000   116174.0000   642367     --- 
     68    43   116174.0000  1334     1845.0000   116174.0000   625496     --- 
     70    55   116174.0000  1147     1845.0000   116174.0000   687356     --- 
Elapsed time = 1004.55 sec. (491528.00 ticks, tree = 2.16 MB, solutions = 2)
     72    56   116174.0000  1102     1845.0000   116174.0000   689245     --- 
     73    53   116174.0000  1189     1845.0000   116174.0000   716385     --- 
     74    57   116174.0000  1038     1845.0000   116174.0000   691280     --- 
     75    58   116174.0000  1032     1845.0000   116174.0000   692698     --- 
     78    54   116174.0000  1125     1845.0000   116174.0000   719868     --- 
     81    59   116174.0000   971     1845.0000   116174.0000   694606     --- 
     83    60   116174.0000   967     1845.0000   116174.0000   695224     --- 
     84    58   116174.0000  1160     1845.0000   116174.0000   642822     --- 
     88    58   116174.0000  1032     1845.0000   116174.0000   722280     --- 
     89    60   116174.0000  1078     1845.0000   116174.0000   716408     --- 
Elapsed time = 1043.45 sec. (510931.67 ticks, tree = 3.49 MB, solutions = 2)
     90    68   116174.0000   978     1845.0000   116174.0000   727323     --- 
     92    46   116174.0000  1229     1845.0000   116174.0000   579753     --- 
     94    78   116174.0000  1063     1845.0000   116174.0000   773493     --- 
    100    79   116174.0000   965     1845.0000   116174.0000   775715     --- 
    105    74   116174.0000  1034     1845.0000   116174.0000   738032     --- 
    110    65   116174.0000  1024     1845.0000   116174.0000   721425     --- 
    113    68    infeasible           1845.0000   116174.0000   732557     --- 
    121    69   116174.0000   979     1845.0000   116174.0000   732913     --- 
    125    77   116174.0000   967     1845.0000   116174.0000   740517     --- 
    129    67   116174.0000   989     1845.0000   116174.0000   724134     --- 
Elapsed time = 1076.59 sec. (527482.52 ticks, tree = 3.70 MB, solutions = 2)
    131    83   116174.0000   935     1845.0000   116174.0000   780180     --- 
    134    71   116174.0000   901     1845.0000   116174.0000   735373     --- 
    136    83   116174.0000   890     1845.0000   116174.0000   783760     --- 
    137    80   116174.0000   892     1845.0000   116174.0000   743795     --- 
    141    80   116174.0000   979     1845.0000   116174.0000   744333     --- 
    142    84   116174.0000   885     1845.0000   116174.0000   785453     --- 
    143    85   116174.0000   917     1845.0000   116174.0000   782243     --- 
    146    83    infeasible           1845.0000   116174.0000   788346     --- 
    152    92   116174.0000   977     1845.0000   116174.0000   793632     --- 
    159   101   116174.0000   946     1845.0000   116174.0000   805590     --- 
Elapsed time = 1113.45 sec. (544688.01 ticks, tree = 4.97 MB, solutions = 2)
    166    94   116174.0000   957     1845.0000   116174.0000   794730     --- 
    172    86   116174.0000   950     1845.0000   116174.0000   790449     --- 
    184    96   116174.0000   967     1845.0000   116174.0000   795788     --- 
    191    97   116174.0000   990     1845.0000   116174.0000   796159     --- 
    196    98   116174.0000   955     1845.0000   116174.0000   796996     --- 
    199    99   116174.0000   944     1845.0000   116174.0000   797977     --- 
    202   105   116174.0000   828     1845.0000   116174.0000   810645     --- 
    203   100   116174.0000   918     1845.0000   116174.0000   799101     --- 
    206   113   116174.0000   912     1845.0000   116174.0000   817059     --- 
    208   113   116174.0000  1030     1845.0000   116174.0000   817638     --- 
Elapsed time = 1143.25 sec. (559538.68 ticks, tree = 4.64 MB, solutions = 2)
    210   108   116174.0000   804     1845.0000   116174.0000   813541     --- 
    217   101   116174.0000   820     1845.0000   116174.0000   801386     --- 
    219   114   116174.0000  1127     1845.0000   116174.0000   819248     --- 
    222   118    infeasible           1845.0000   116174.0000   823472     --- 
    224   117   116174.0000  1036     1845.0000   116174.0000   820650     --- 
    227   104   116174.0000   942     1845.0000   116174.0000   813625     --- 
    228   120    infeasible           1845.0000   116174.0000   825549     --- 
    230   119    infeasible           1845.0000   116174.0000   826368     --- 
    231   119   116174.0000   987     1845.0000   116174.0000   824198     --- 
    232   120   116174.0000   882     1845.0000   116174.0000   826545     --- 
Elapsed time = 1200.05 sec. (580764.48 ticks, tree = 4.85 MB, solutions = 2)
    233   119    infeasible           1845.0000   116174.0000   828240     --- 
    237   121   116174.0000   845     1845.0000   116174.0000   828884     --- 
    240   122   116174.0000   817     1845.0000   116174.0000   829830     --- 
    241   123   116174.0000   790     1845.0000   116174.0000   831144     --- 

Implied bound cuts applied:  953
Flow cuts applied:  23
Mixed integer rounding cuts applied:  10
Gomory fractional cuts applied:  2

Root node processing (before b&c):
  Real time             =  474.94 sec. (286444.36 ticks)
Parallel b&c, 4 threads:
  Real time             =  725.58 sec. (304147.22 ticks)
  Sync time (average)   =  117.26 sec.
  Wait time (average)   =    0.00 sec.
                          ------------
Total (root+branch&cut) = 1200.52 sec. (590591.58 ticks)

<<< solve


OBJECTIVE: 1845

<<< post process


<<< done

